     Program PWSCF v.7.4 starts on  4Mar2025 at 10:28:24
        Git branch: Coulomb_me
        Last git commit: 8cff1b83a366c37df53e620f08cdfebd9e082efc-dirty
        Last git commit date: Tue Feb 18 10:53:49 2025 +0100
        Last git commit subject: Solving bugs in get_coulomb

     Reading input from GaAs.scf

     Current dimensions of program PWSCF are:
     Max number of different atomic species (ntypx) = 10
     Max number of k-points (npk) =  40000
     Max angular momentum in pseudopotentials (lmaxx) =  4

     Subspace diagonalization in iterative solution of the eigenvalue problem:
     a serial algorithm will be used

     Using Slab Decomposition

     bravais-lattice index     =            2
     lattice parameter (alat)  =      10.6800  a.u.
     unit-cell volume          =     304.5466 (a.u.)^3
     number of atoms/cell      =            2
     number of atomic types    =            2
     number of electrons       =        28.00
     number of Kohn-Sham states=           18
     kinetic-energy cutoff     =      35.0000  Ry
     charge density cutoff     =     150.0000  Ry
     scf convergence threshold =      1.0E-08
     mixing beta               =       0.7000
     number of iterations used =            8  plain     mixing
     Exchange-correlation= PBE
                           (   1   4   3   4   0   0   0)

     celldm(1)=  10.680000  celldm(2)=   0.000000  celldm(3)=   0.000000
     celldm(4)=   0.000000  celldm(5)=   0.000000  celldm(6)=   0.000000

     crystal axes: (cart. coord. in units of alat)
               a(1) = (  -0.500000   0.000000   0.500000 )
               a(2) = (   0.000000   0.500000   0.500000 )
               a(3) = (  -0.500000   0.500000   0.000000 )

     reciprocal axes: (cart. coord. in units 2 pi/alat)
               b(1) = ( -1.000000 -1.000000  1.000000 )
               b(2) = (  1.000000  1.000000  1.000000 )
               b(3) = ( -1.000000  1.000000 -1.000000 )

     PseudoPot. # 1 for Ga read from file:
     ./pseudo/Ga.upf
     MD5 check sum: 2bb81bf6f0a8d9832cf3329850435ecf
     Pseudo is Norm-conserving + core correction, Zval = 13.0
     Generated using ONCVPSP code by D. R. Hamann
     Using radial grid of 1902 points,  6 beta functions with:
                l(1) =   0
                l(2) =   0
                l(3) =   1
                l(4) =   1
                l(5) =   2
                l(6) =   2

     PseudoPot. # 2 for As read from file:
     ./pseudo/As.upf
     MD5 check sum: bfe1a874457ce592347346129958e7cf
     Pseudo is Norm-conserving + core correction, Zval = 15.0
     Generated using ONCVPSP code by D. R. Hamann
     Using radial grid of 1358 points,  6 beta functions with:
                l(1) =   0
                l(2) =   0
                l(3) =   1
                l(4) =   1
                l(5) =   2
                l(6) =   2

     atomic species   valence    mass     pseudopotential
     Ga               13.00    68.92600     Ga( 1.00)
     As               15.00    74.92200     As( 1.00)

     24 Sym. Ops. (no inversion) found

   Cartesian axes

     site n.     atom                  positions (alat units)
         1        Ga     tau(   1) = (   0.0000000   0.0000000   0.0000000  )
         2        As     tau(   2) = (  -0.2500000   0.2500000   0.2500000  )

     number of k points=     3  Methfessel-Paxton smearing, width (Ry)=  0.0100
                       cart. coord. in units 2pi/alat
        k(    1) = (   0.0000000   0.0000000   0.0000000), wk =   0.2500000
        k(    2) = (   0.5000000  -0.5000000   0.5000000), wk =   1.0000000
        k(    3) = (   0.0000000  -1.0000000   0.0000000), wk =   0.7500000

     Initial potential from superposition of free atoms

     starting charge      27.9971, renormalised to      28.0000

     negative rho (up, down):  7.955E-04 0.000E+00
     Starting wfcs are   18 randomized atomic wfcs

     Self-consistent Calculation

     iteration #  1     ecut=    35.00 Ry     beta= 0.70
     Davidson diagonalization with overlap
     ethr =  1.00E-02,  avg # of iterations =  4.0

     negative rho (up, down):  2.356E-04 0.000E+00

     total energy              =    -351.32717293 Ry
     estimated scf accuracy    <       3.55914137 Ry

[...]

     negative rho (up, down):  1.198E-05 0.000E+00

[...]

     total energy              =    -351.86782314 Ry
     estimated scf accuracy    <       0.00000002 Ry

     iteration #  8     ecut=    35.00 Ry     beta= 0.70
     Davidson diagonalization with overlap
     ethr =  8.20E-11,  avg # of iterations =  4.0

     End of self-consistent calculation

          k = 0.0000 0.0000 0.0000 (  1067 PWs)   bands (ev):

   -25.4026 -25.4026 -25.4026 -25.0100 -25.0100  -7.1781  -7.1781  -7.1781
    -6.7782  -6.7782  -3.9832   8.4780   9.1871   9.1871   9.1871  13.0948
    13.0948  13.0948

[...]

          k = 0.0000-1.0000 0.0000 (  1090 PWs)   bands (ev):

   -26.6329 -26.6329 -25.6905 -25.6007 -25.3878  -7.8690  -7.8690  -7.2877
    -7.2358  -7.2259  -1.6594   2.0644   6.4460   6.4460  10.8149  11.0223
    18.9857  18.9857

     the Fermi energy is     9.2146 ev

!    total energy              =    -351.86782316 Ry
     estimated scf accuracy    <          9.6E-09 Ry
     smearing contrib. (-TS)   =      -0.00093331 Ry
     internal energy E=F+TS    =    -351.86688985 Ry

     The total energy is F=E-TS. E is the sum of the following terms:
     one-electron contribution =    -170.10821885 Ry
     hartree contribution      =     101.82309395 Ry
     xc contribution           =     -85.15567078 Ry
     ewald contribution        =    -198.42609417 Ry

     convergence has been achieved in   8 iterations

     Forces acting on atoms (cartesian axes, Ry/au):

     atom    1 type  1   force =     0.00000000    0.00000000    0.00000000
     atom    2 type  2   force =     0.00000000    0.00000000    0.00000000

     Total force =     0.000000     Total SCF correction =     0.000000

     Computing stress (Cartesian axis) and pressure

          total   stress  (Ry/bohr**3)                   (kbar)     P=   -17515.81
  -0.11907003  -0.00000000  -0.00000000       -17515.81       -0.00       -0.00
  -0.00000000  -0.11907003  -0.00000000           -0.00   -17515.81       -0.00
  -0.00000000  -0.00000000  -0.11907003           -0.00       -0.00   -17515.81

     Writing all to output data dir ./out/GaAs.save/ :
     XML data file, charge density, pseudopotentials, collected wavefunctions

     General routines

     Parallel routines

   This run was terminated on:  10:28:26   4Mar2025

   JOB DONE.